(declare-const X String)
; SpywareStrike.*Subject\u{3A}\s+Pcast\u{2E}dat\u{2E}Toolbar
(assert (str.in_re X (re.++ (str.to_re "SpywareStrike") (re.* re.allchar) (str.to_re "Subject:") (re.+ (re.union (str.to_re " ") (str.to_re "\u{9}") (str.to_re "\u{a}") (str.to_re "\u{c}") (str.to_re "\u{d}"))) (str.to_re "Pcast.dat.Toolbar\u{a}"))))
; ^(FR)?\s?[A-Z0-9-[IO]]{2}[0-9]{9}$
(assert (not (str.in_re X (re.++ (re.opt (str.to_re "FR")) (re.opt (re.union (str.to_re " ") (str.to_re "\u{9}") (str.to_re "\u{a}") (str.to_re "\u{c}") (str.to_re "\u{d}"))) (re.union (re.range "A" "Z") (re.range "0" "9") (str.to_re "-") (str.to_re "[") (str.to_re "I") (str.to_re "O")) ((_ re.loop 2 2) (str.to_re "]")) ((_ re.loop 9 9) (re.range "0" "9")) (str.to_re "\u{a}")))))
; StarLoggerCookie\u{3a}Host\u{3A}PRODUCEDwebsearch\.getmirar\.com
(assert (str.in_re X (str.to_re "StarLoggerCookie:Host:PRODUCEDwebsearch.getmirar.com\u{a}")))
; this\w+c\.goclick\.com\d
(assert (not (str.in_re X (re.++ (str.to_re "this") (re.+ (re.union (re.range "0" "9") (re.range "A" "Z") (re.range "a" "z") (str.to_re "_"))) (str.to_re "c.goclick.com") (re.range "0" "9") (str.to_re "\u{a}")))))
(check-sat)
